p cnf 86 62
c p distribution  0.875 0.125
c p distribution  0.875 0.125
c p distribution  0.875 0.125
c p distribution  0.875 0.125
c p distribution  0.875 0.125
c p distribution  0.875 0.125
c p distribution  0.875 0.125
c p distribution  0.875 0.125
c p distribution  0.875 0.125
c p distribution  0.875 0.125
c p distribution  0.875 0.125
c p distribution  0.875 0.125
c p distribution  0.875 0.125
c p distribution  0.875 0.125
c p distribution  0.875 0.125
c p distribution  0.875 0.125
c p distribution  0.875 0.125
c p distribution  0.875 0.125
c p distribution  0.875 0.125
c p distribution  0.875 0.125
c p distribution  0.875 0.125
c p distribution  0.875 0.125
c p distribution  0.875 0.125
c p distribution  0.875 0.125
c p distribution  0.875 0.125
c p distribution  0.875 0.125
c p distribution  0.875 0.125
c p distribution  0.875 0.125
c p distribution  0.875 0.125
c p distribution  0.875 0.125
80 0
-74 0
84 -64 -1 0
64 -84 -1 0
69 -85 -3 0
85 -69 -3 0
62 -74 -5 0
74 -62 -5 0
77 -79 -7 0
79 -77 -7 0
63 -65 -9 0
65 -63 -9 0
86 -81 -11 0
81 -86 -11 0
71 -75 -13 0
75 -71 -13 0
80 -74 -15 0
74 -80 -15 0
66 -81 -17 0
81 -66 -17 0
68 -79 -19 0
79 -68 -19 0
66 -67 -21 0
67 -66 -21 0
78 -69 -23 0
69 -78 -23 0
77 -75 -25 0
75 -77 -25 0
86 -61 -27 0
61 -86 -27 0
68 -85 -29 0
85 -68 -29 0
81 -74 -31 0
74 -81 -31 0
72 -65 -33 0
65 -72 -33 0
71 -64 -35 0
64 -71 -35 0
76 -62 -37 0
62 -76 -37 0
71 -64 -39 0
64 -71 -39 0
84 -75 -41 0
75 -84 -41 0
85 -81 -43 0
81 -85 -43 0
66 -68 -45 0
68 -66 -45 0
76 -72 -47 0
72 -76 -47 0
78 -68 -49 0
68 -78 -49 0
69 -85 -51 0
85 -69 -51 0
82 -73 -53 0
73 -82 -53 0
70 -77 -55 0
77 -70 -55 0
84 -71 -57 0
71 -84 -57 0
80 -73 -59 0
73 -80 -59 0

